SCIP Status        : solving was interrupted [time limit reached]
Total Time         :    3600.00
  solving          :    3599.99
  presolving       :       0.38 (included in solving)
  reading          :       0.01
  copying          :       2.09 (74 #copies) (minimal 0.00, maximal 0.11, average 0.03)
Original Problem   :
  Problem name     : bbbenchmark/g05_100.0.cut
  Variables        : 101 (100 binary, 0 integer, 0 implicit integer, 1 continuous)
  Constraints      : 1 initial, 1 maximal
  Objective        : minimize, 1 non-zeros (abs.min = 1, abs.max = 1)
Presolved Problem  :
  Problem name     : t_bbbenchmark/g05_100.0.cut
  Variables        : 1806 (100 binary, 0 integer, 1690 implicit integer, 16 continuous)
  Constraints      : 1736 initial, 8054 maximal
  Objective        : minimize, 1 non-zeros (abs.min = 1, abs.max = 1)
  Nonzeros         : 8521 constraint, 202 clique table
Presolvers         :   ExecTime  SetupTime  Calls  FixedVars   AggrVars   ChgTypes  ChgBounds   AddHoles    DelCons    AddCons   ChgSides   ChgCoefs
  boundshift       :       0.00       0.00      0          0          0          0          0          0          0          0          0          0
  convertinttobin  :       0.00       0.00      0          0          0          0          0          0          0          0          0          0
  domcol           :       0.00       0.00      1          0          0          0          0          0          0          0          0          0
  dualagg          :       0.00       0.00      0          0          0          0          0          0          0          0          0          0
  dualcomp         :       0.00       0.00      1          0          0          0          0          0          0          0          0          0
  dualinfer        :       0.00       0.00      0          0          0          0          0          0          0          0          0          0
  dualsparsify     :       0.00       0.00      1          0          0          0          0          0          0          0          0          0
  gateextraction   :       0.00       0.00      0          0          0          0          0          0          0          0          0          0
  implics          :       0.00       0.00      2          0          0          0          0          0          0          0          0          0
  inttobinary      :       0.00       0.00      0          0          0          0          0          0          0          0          0          0
  qpkktref         :       0.00       0.00      0          0          0          0          0          0          0          0          0          0
  redvub           :       0.00       0.00      0          0          0          0          0          0          0          0          0          0
  sparsify         :       0.00       0.00      1          0          0          0          0          0          0          0          0          0
  stuffing         :       0.00       0.00      0          0          0          0          0          0          0          0          0          0
  trivial          :       0.00       0.00      4          0          0          0          0          0          0          0          0          0
  tworowbnd        :       0.00       0.00      0          0          0          0          0          0          0          0          0          0
  dualfix          :       0.00       0.00      4          0          0          0          0          0          0          0          0          0
  genvbounds       :       0.00       0.00      0          0          0          0          0          0          0          0          0          0
  probing          :       0.31       0.00      1          0          0          0          0          0          0          0          0          0
  pseudoobj        :       0.00       0.00      1          0          0          0          1          0          0          0          0          0
  symmetry         :       0.00       0.00      0          0          0          0          0          0          0          0          0          0
  vbounds          :       0.00       0.00      1          0          0          0          0          0          0          0          0          0
  varbound         :       0.00       0.00      2          0          0          0          0          0          0          0          0          0
  and              :       0.00       0.01      2          0          0          0          0          0          0          0          0          0
  linear           :       0.00       0.00      2          0          0          0          0          0          0          0          0          0
  logicor          :       0.00       0.00      0          0          0          0          0          0          0          0          0          0
  bounddisjunction :       0.00       0.00      0          0          0          0          0          0          0          0          0          0
  nonlinear        :       0.07       0.00      5          0          0          0          1          0          0       1735          0          0
  benders          :       0.00       0.00      0          0          0          0          0          0          0          0          0          0
  components       :       0.00       0.00      1          0          0          0          0          0          0          0          0          0
  root node        :          -          -      -          0          -          -         15          -          -          -          -          -
Constraints        :     Number  MaxNumber  #Separate #Propagate    #EnfoLP    #EnfoRelax  #EnfoPS    #Check   #ResProp    Cutoffs    DomReds       Cuts    Applied      Conss   Children
  benderslp        :          0          0          0          0     149321          0          0       5786          0          0          0          0          0          0          0
  integral         :          0          0          0          0     149321          0          0       5786          0          0          6          0          0          1     298628
  varbound         :         15         15        141     872944          0          0          0         31          0          0     121389          0          0          0          0
  and              :       1690       1690     173258     946405          1          0          0         31     518891          0     282916       9108       8904          0          0
  linear           :         31+        38        141     946446          1          0          0         29        716         12     479520          0          0          0          0
  logicor          :          0+      6160          0     137129          0          0          0          0         12        394         24          0          0          0          0
  bounddisjunction :          0+       200          0      71667          0          0          0          0          0         24          1          0          0          0          0
  benders          :          0          0          0          0          1          0          0         31          0          0          0          0          0          0          0
  countsols        :          0          0          0          0          1          0          0         31          0          0          0          0          0          0          0
  components       :          0          0          0          0          0          0          0          0          0          0          0          0          0          0          0
Constraint Timings :  TotalTime  SetupTime   Separate  Propagate     EnfoLP     EnfoPS     EnfoRelax   Check    ResProp    SB-Prop
  benderslp        :       0.14       0.00       0.00       0.00       0.14       0.00       0.00       0.00       0.00       0.00
  integral         :      61.44       0.00       0.00       0.00      61.43       0.00       0.00       0.01       0.00       0.00
  varbound         :       1.52       0.00       0.00       1.52       0.00       0.00       0.00       0.00       0.00       0.00
  and              :     107.77       0.01      80.31      26.46       0.00       0.00       0.00       0.03       0.35       0.61
  linear           :       4.47       0.00       0.07       4.37       0.00       0.00       0.00       0.00       0.00       0.03
  logicor          :      10.66       0.00       0.00      10.65       0.00       0.00       0.00       0.00       0.00       0.01
  bounddisjunction :       0.99       0.00       0.00       0.99       0.00       0.00       0.00       0.00       0.00       0.00
  benders          :       0.00       0.00       0.00       0.00       0.00       0.00       0.00       0.00       0.00       0.00
  countsols        :       0.00       0.00       0.00       0.00       0.00       0.00       0.00       0.00       0.00       0.00
  components       :       0.20       0.00       0.00       0.20       0.00       0.00       0.00       0.00       0.00       0.00
Propagators        : #Propagate   #ResProp    Cutoffs    DomReds
  dualfix          :          4          0          0          0
  genvbounds       :          0          0          0          0
  nlobbt           :          0          0          0          0
  obbt             :          0          0          0          0
  probing          :          0          0          0          0
  pseudoobj        :     659519          0          0         17
  redcost          :     334845          0          0      88116
  rootredcost      :         14          0          0          0
  symmetry         :          0          0          0          0
  vbounds          :     178085          0          0          0
Propagator Timings :  TotalTime  SetupTime   Presolve  Propagate    ResProp    SB-Prop
  dualfix          :       0.00       0.00       0.00       0.00       0.00       0.00
  genvbounds       :       0.62       0.00       0.00       0.62       0.00       0.00
  nlobbt           :       0.00       0.00       0.00       0.00       0.00       0.00
  obbt             :       0.00       0.00       0.00       0.00       0.00       0.00
  probing          :       0.31       0.00       0.31       0.00       0.00       0.00
  pseudoobj        :       1.13       0.00       0.00       1.13       0.00       0.00
  redcost          :      17.61       0.00       0.00      17.61       0.00       0.00
  rootredcost      :       0.87       0.00       0.00       0.87       0.00       0.00
  symmetry         :       0.35       0.00       0.00       0.35       0.00       0.00
  vbounds          :       0.63       0.00       0.00       0.63       0.00       0.00
Conflict Analysis  :       Time      Calls    Success    DomReds  Conflicts   Literals    Reconvs ReconvLits   Dualrays   Nonzeros   LP Iters   (pool size: [10000,10000])
  propagation      :       0.02        419        308          -        376       63.6          0        0.0          -          -          -
  infeasible LP    :       0.04         41         41          -       1333      161.5          0        0.0         89      138.5          0
  bound exceed. LP :      14.87       5937       5740          -     144804      108.4          0        0.0          0        0.0      43221
  strong branching :       0.00          0          0          -          0        0.0          0        0.0          -          -          0
  pseudo solution  :       0.00          0          0          -          0        0.0          0        0.0          -          -          -
  applied globally :       0.50          -          -          0      33635      114.4          -          -         89          -          -
  applied locally  :          -          -          -          0          0        0.0          -          -          0          -          -
Separators         :   ExecTime  SetupTime      Calls  RootCalls    Cutoffs    DomReds  FoundCuts ViaPoolAdd  DirectAdd    Applied ViaPoolApp  DirectApp      Conss
  cut pool         :       5.28          -      27583        175          -          -      37647    1341662          -          -          -          -          -    (maximal pool size:       3804)
  aggregation      :      48.02       0.00       5410        141          0          0        194        914          0        279        279          0          0
  > cmir           :          -          -          -          -          -          -          -        914          0        279        279          0          -
  > flowcover      :          -          -          -          -          -          -          -          0          0          0          0          0          -
  > knapsackcover  :          -          -          -          -          -          -          -          0          0          0          0          0          -
  cgmip            :       0.00       0.00          0          0          0          0          0          0          0          0          0          0          0
  clique           :       0.02       0.00        141        141          0          0          0          0          0          0          0          0          0
  closecuts        :       0.00       0.00          0          0          0          0          0          0          0          0          0          0          0
  convexproj       :       0.00       0.00          0          0          0          0          0          0          0          0          0          0          0
  disjunctive      :       0.00       0.00          0          0          0          0          0          0          0          0          0          0          0
  eccuts           :       0.00       0.00          0          0          0          0          0          0          0          0          0          0          0
  gauge            :       0.00       0.00          0          0          0          0          0          0          0          0          0          0          0
  gomory           :       0.00       0.00          0          0          0          0          0          0          0          0          0          0          0
  > gomorymi       :          -          -          -          -          -          -          -          0          0          0          0          0          -
  > strongcg       :          -          -          -          -          -          -          -          0          0          0          0          0          -
  impliedbounds    :       0.46       0.00       5410        141          0          0          3          0          0          0          0          0          0
  interlattice     :       0.68       0.00        103        103          0          0        103          0        103        102          0        102          0
  interminor       :       0.00       0.00          0          0          0          0          0          0          0          0          0          0          0
  intersub         :       0.11       0.00          3          3          0          0          1          0          1          1          0          1          0
  intobj           :       0.00       0.00          0          0          0          0          0          0          0          0          0          0          0
  mcf              :       0.01       0.00          1          1          0          0          0          0          0          0          0          0          0
  minor            :       0.00       0.00          0          0          0          0          0          0          0          0          0          0          0
  mixing           :       0.02       0.00       5410        141          0          0          0          0          0          0          0          0          0
  oddcycle         :       0.00       0.00          0          0          0          0          0          0          0          0          0          0          0
  rapidlearning    :       0.00       0.00          0          0          0          0          0          0          0          0          0          0          0
  rlt              :       0.00       0.00         10         10          0          0          0          0          0          0          0          0          0
  zerohalf         :      40.75       0.00       4806         20          0          0      37450    1340748          0     163248     163248          0          0
Cutselectors       :   ExecTime  SetupTime      Calls  RootCalls   Selected     Forced   Filtered  RootSelec   RootForc   RootFilt 
  hybrid           :       1.61       0.00      19395        142     172534          0    1178340        303          0         11
Pricers            :   ExecTime  SetupTime      Calls       Vars
  problem variables:       0.00          -          0          0
Branching Rules    :   ExecTime  SetupTime   BranchLP  BranchExt   BranchPS    Cutoffs    DomReds       Cuts      Conss   Children
  allfullstrong    :       0.00       0.00          0          0          0          0          0          0          0          0
  cloud            :       0.00       0.00          0          0          0          0          0          0          0          0
  distribution     :       0.00       0.00          0          0          0          0          0          0          0          0
  fullstrong       :       0.00       0.00          0          0          0          0          0          0          0          0
  inference        :       0.00       0.00          0          0          0          0          0          0          0          0
  leastinf         :       0.00       0.00          0          0          0          0          0          0          0          0
  lookahead        :       0.00       0.00          0          0          0          0          0          0          0          0
  mostinf          :       0.00       0.00          0          0          0          0          0          0          0          0
  multaggr         :       0.00       0.00          0          0          0          0          0          0          0          0
  nodereopt        :       0.00       0.00          0          0          0          0          0          0          0          0
  pscost           :       0.00       0.00          0          0          0          0          0          0          0          0
  random           :       0.00       0.00          0          0          0          0          0          0          0          0
  relpscost        :      60.95       0.00     149320          0          0          0          6          0          1     298628
  vanillafullstrong:       0.00       0.00          0          0          0          0          0          0          0          0
Primal Heuristics  :   ExecTime  SetupTime      Calls      Found       Best
  LP solutions     :       0.00          -          -          1          1
  relax solutions  :       0.00          -          -          0          0
  pseudo solutions :       0.00          -          -          0          0
  strong branching :       0.01          -          -          0          0
  actconsdiving    :       0.00       0.00          0          0          0
  adaptivediving   :       3.88       0.00         34          0          0
  alns             :       6.00       0.00         24          7          6
  bound            :       0.00       0.00          0          0          0
  clique           :       0.01       0.00          1          0          0
  coefdiving       :       0.00       0.00          0          0          0
  completesol      :       0.00       0.00          0          0          0
  conflictdiving   :      90.81       0.00        815          0          0
  crossover        :       0.16       0.00          2          0          0
  dins             :       0.00       0.00          0          0          0
  distributiondivin:      78.29       0.00        437          0          0
  dps              :       0.00       0.00          0          0          0
  dualval          :       0.00       0.00          0          0          0
  farkasdiving     :       0.03       0.00          0          0          0
  feaspump         :       0.18       0.00          1          1          1
  fixandinfer      :       0.00       0.00          0          0          0
  fracdiving       :      52.53       0.00        540          0          0
  gins             :       0.30       0.00          0          0          0
  guideddiving     :      55.29       0.00        541          1          1
  indicator        :       0.19       0.00          0          0          0
  indicatordiving  :       0.00       0.00          0          0          0
  intdiving        :       0.00       0.00          0          0          0
  intshifting      :       0.23       0.00         37          0          0
  linesearchdiving :      53.66       0.00        540          0          0
  localbranching   :       0.00       0.00          0          0          0
  locks            :       0.01       0.00          1          0          0
  lpface           :       0.17       0.00          0          0          0
  mpec             :     276.55       0.00         11          3          3
  multistart       :       0.00       0.00          0          0          0
  mutation         :       0.00       0.00          0          0          0
  nlpdiving        :      35.10       0.00          6          0          0
  objpscostdiving  :      58.96       0.00         83          7          1
  octane           :       0.00       0.00          0          0          0
  ofins            :       0.16       0.00          0          0          0
  oneopt           :       0.24       0.00         19          0          0
  padm             :       0.00       0.00          0          0          0
  proximity        :       0.00       0.00          0          0          0
  pscostdiving     :      56.64       0.00        509          1          1
  randrounding     :       1.00       0.00       5751          0          0
  rens             :       0.00       0.00          0          0          0
  reoptsols        :       0.00       0.00          0          0          0
  repair           :       0.00       0.00          0          0          0
  rins             :       5.44       0.00         47          2          2
  rootsoldiving    :      29.84       0.00         36          0          0
  rounding         :       1.45       0.00       5615          0          0
  shiftandpropagate:       0.00       0.00          0          0          0
  shifting         :      39.90       0.00      10207          3          3
  simplerounding   :       0.16       0.00          0          0          0
  subnlp           :     210.50       0.00          0          0          0
  trivial          :       0.00       0.00          2          2          2
  trivialnegation  :       0.00       0.00          0          0          0
  trustregion      :       0.00       0.00          0          0          0
  trysol           :       0.28       0.00          0          0          0
  twoopt           :       0.00       0.00          0          0          0
  undercover       :       1.58       0.00          1          1          1
  vbounds          :       0.00       0.00          0          0          0
  veclendiving     :      54.15       0.00        540          0          0
  zeroobj          :       0.00       0.00          0          0          0
  zirounding       :       0.41       0.00       1000          0          0
  other solutions  :          -          -          -          0          -
Diving (single)    :      Calls      Nodes   LP Iters Backtracks  Conflicts   MinDepth   MaxDepth   AvgDepth  RoundSols  NLeafSols  MinSolDpt  MaxSolDpt  AvgSolDpt
  actconsdiving    :          0          -          -          -          -          -          -          -          -          -          -          -          -
  coefdiving       :          0          -          -          -          -          -          -          -          -          -          -          -          -
  conflictdiving   :        815      34254    1082050        812      52051         54         83       62.0          0          -          -          -          -
  distributiondivin:        437      16384     733240        512       8030         50         72       57.5          0          -          -          -          -
  farkasdiving     :          0          -          -          -          -          -          -          -          -          -          -          -          -
  fracdiving       :        540      68038     656812        114       1211         56        652      146.9          0          -          -          -          -
  guideddiving     :        541      57001     699298        148       4848         56        330      125.9          0          1        116        116      116.0
  indicatordiving  :          0          -          -          -          -          -          -          -          -          -          -          -          -
  linesearchdiving :        540      22217     721221        501      29000         46         94       61.3          0          -          -          -          -
  pscostdiving     :        509      23675     745647        513      14228         52         80       67.6          0          1         80         80       80.0
  veclendiving     :        540      21547     691704        531      35580         54         84       60.0          0          -          -          -          -
Diving (adaptive)  :      Calls      Nodes   LP Iters Backtracks  Conflicts   MinDepth   MaxDepth   AvgDepth  RoundSols  NLeafSols  MinSolDpt  MaxSolDpt  AvgSolDpt
  actconsdiving    :          2         86       2760          3         27         60         61       60.5          0          -          -          -          -
  coefdiving       :         12        525      15431          9        714         53         89       62.2          0          -          -          -          -
  conflictdiving   :          0          -          -          -          -          -          -          -          -          -          -          -          -
  distributiondivin:          0          -          -          -          -          -          -          -          -          -          -          -          -
  farkasdiving     :          0          -          -          -          -          -          -          -          -          -          -          -          -
  fracdiving       :          2        223       2849          0          0        108        141      124.5          0          -          -          -          -
  guideddiving     :          0          -          -          -          -          -          -          -          -          -          -          -          -
  indicatordiving  :          0          -          -          -          -          -          -          -          -          -          -          -          -
  linesearchdiving :         12        535      15294         10        634         52         82       65.3          0          -          -          -          -
  pscostdiving     :          3        154       4733          3         47         69         74       70.7          0          -          -          -          -
  veclendiving     :          3        131       4002          3        191         56         72       62.0          0          -          -          -          -
Neighborhoods      :      Calls  SetupTime  SolveTime SolveNodes       Sols       Best       Exp3  EpsGreedy        UCB TgtFixRate  Opt  Inf Node Stal  Sol  Usr Othr Actv
  rens             :          3       0.10       0.08         64          0          0    0.00000   -1.00000    0.47692      0.662    0    2    0    1    0    0    0    1
  rins             :          3       0.12       1.75       2331          3          3    0.00000   -1.00000    0.48514      0.662    0    1    0    1    1    0    0    1
  mutation         :          2       0.07       0.09         66          0          0    0.00000   -1.00000    0.46614      0.850    0    1    0    1    0    0    0    1
  localbranching   :          2       0.10       0.07        133          0          0    0.00000   -1.00000    0.44825      0.850    0    1    0    1    0    0    0    1
  crossover        :          6       0.31       0.63        203          1          1    0.00000   -1.00000    0.48250      0.506    1    3    0    2    0    0    0    1
  proximity        :          3       0.13       1.24       1360          2          1    0.00000   -1.00000    0.48269      0.900    1    0    0    2    0    0    0    1
  zeroobjective    :          3       0.07       0.89        602          1          1    0.00000   -1.00000    0.49346      0.662    1    1    0    1    0    0    0    1
  dins             :          2       0.10       0.07        126          0          0    0.00000   -1.00000    0.44820      0.850    0    1    0    1    0    0    0    1
  trustregion      :          0       0.00       0.00          0          0          0    0.00000   -1.00000    1.00000      0.900    0    0    0    0    0    0    0    0
Expressions        :   #IntEval  IntEvalTi   #RevProp  RevPropTi    DomReds    Cutoffs  #Estimate  EstimTime  Branching  #Simplify SimplifyTi Simplified
  pow              :          0       0.00          0       0.00          0          0          0       0.00          0          0       0.00          0
  prod             :       9900       0.02          0       0.00          0          0          0       0.00          0       6640       0.01          0
  sum              :          8       0.00          2       0.00          0          0          0       0.00          0          3       0.00          2
  var              :       6227       0.00          0       0.00          0          0          0       0.00          0      15288       0.00          0
  varidx           :          0       0.00          0       0.00          0          0          0       0.00          0          0       0.00          0
LP                 :       Time      Calls Iterations  Iter/call   Iter/sec  Time-0-It Calls-0-It    ItLimit
  primal LP        :     118.80      21707          0       0.00       0.00     118.71      21707
  dual LP          :    1836.80     281562   14313936      54.06    7792.87       6.60      16790
  lex dual LP      :       0.00          0          0       0.00          -
  barrier LP       :       0.00          0          0       0.00          -       0.00          0
  resolve instable :       0.00          0          0       0.00          -
  diving/probing LP:     451.62      20615    6024721     292.25   13340.24
  strong branching :      22.56       1886     273160     144.84   12108.16          -          -       1242
    (at root node) :          -         19       5540     291.58          -
  conflict analysis:       5.14       4422      43221       9.77    8408.75
NLP relaxation     :
  solve time       :      34.58 (22 calls)
  convexity        :  nonconvex (46 linear rows, 0 convex ineq., 0 nonconvex ineq., 1690 nonlinear eq. or two-sided ineq.)
NLP Solvers        :  #Problems  ProblemTi    #Solves  SolveTime      #Iter  Time/Iter      #Okay #TimeLimit #IterLimit #LObjLimit #Interrupt  #NumError #EvalError  #OutOfMem #LicenseEr #OtherTerm   #GlobOpt    #LocOpt  #Feasible #LocInfeas #GlobInfea #Unbounded   #Unknown
  ipopt            :         12       9.23         63     313.51       1564       0.20         61          0          2          0          0          0          0          0          0          0          0         45          0         12          0          0          6
B&B Tree           :
  number of runs   :          1
  nodes            :     245367 (149314 internal, 96053 leaves)
  feasible leaves  :          1
  infeas. leaves   :         15
  objective leaves :      96037
  nodes (total)    :     245367 (149314 internal, 96053 leaves)
  nodes left       :      52887
  max depth        :         60
  max depth (total):         60
  backtracks       :      61417 (25.0%)
  early backtracks :          0 (0.0%)
  nodes exc. ref.  :          0 (0.0%)
  delayed cutoffs  :          2
  repropagations   :         24 (32 domain reductions, 0 cutoffs)
  avg switch length:       6.68
  switching time   :     174.16
Estim. Tree Size   :     491484
Estimation Tree    : 298629 nodes (245742 visited, 149314 internal, 96428 leaves, 52887 open), weight: 0.0000 completed 0.0899
Estimations        :      estim      value      trend resolution     smooth
  wbe              : 544418066845881          -          -          -          -
  tree-profile     :         -1          -          -          -          -
  gap              :   16273534    0.68177    0.00001        128   16104301
  tree-weight      :     491484    0.00000    0.00000        128     491085
  leaf-frequency   :    1834702    0.39239    0.00002        128    1822901
  ssg              :   17361255    0.85804   -0.00001        128   16961215
  open-nodes       :     491484 52887.00000   29.42009        128     491085
Root Node          :
  First LP value   : -1.00000000000000e+00
  First LP Iters   :       1630 (11642.86 Iter/sec)
  First LP Time    :       0.14
  Final Dual Bound : -9.47148692065253e-01
  Final Root Iters :       3976
  Root LP Estimate : -2.45285373083709e-01
Solution           :
  Solutions found  :         29 (22 improvements)
  First Solution   : +1.00000000000000e+05   (in run 1, after 0 nodes, 0.00 seconds, depth 0, found by <trivial>)
  Gap First Sol.   :   infinite
  Gap Last Sol.    :      47.97 %
  Primal Bound     : -5.63232323232321e-01   (in run 1, after 159337 nodes, 1856.33 seconds, depth 20, found by <alns>)
  Dual Bound       : -8.26138275179318e-01
  Gap              :      46.68 %
Integrals          :      Total       Avg%
  primal-dual      :  124199.55      34.50
  primal-ref       :          -          - (not evaluated)
  dual-ref         :          -          - (not evaluated)
